! Ejemplo de archivo Touchstone .s1p generado para antena a 2.4 GHz
! Las líneas que comienzan con '!' son comentarios
# GHZ S RI R 50.0
! Frecuencia(GHz)   Real(S11)   Imaginario(S11)
2.40000000         0.1518      -0.7140
2.41000000         0.1389      -0.7100
2.42000000         0.1094      -0.6950
2.43000000         0.0894      -0.6800
2.44000000         0.0408      -0.6500
2.45000000         0.0134      -0.6100
2.46000000         0.0254      -0.5900
2.47000000         0.0654      -0.5500
2.48000000         0.0980      -0.5200
2.49000000         0.1210      -0.4900
2.50000000         0.1450      -0.4500
